%BLOCK LATTICE_CART
       5.430000000000000       0.000000000000000       0.000000000000000
       0.000000000000000       5.430000000000000       0.000000000000000
       0.000000000000000       0.000000000000000       5.430000000000000
%ENDBLOCK LATTICE_CART

%BLOCK POSITIONS_FRAC
 Si   0.0000000000000000    0.0000000000000000    0.0000000000000000
 Si   0.0000000000000000    0.5000000000000000    0.5000000000000000
 Si   0.5000000000000000    0.0000000000000000    0.5000000000000000
 Si   0.5000000000000000    0.5000000000000000    0.0000000000000000
 Si   0.7500000000000001    0.2500000000000000    0.7500000000000001
 Si   0.2500000000000000    0.2500000000000000    0.2500000000000000
 Si   0.2500000000000000    0.7500000000000001    0.7500000000000001
 Si   0.7500000000000001    0.7500000000000001    0.2500000000000000
%ENDBLOCK POSITIONS_FRAC

%BLOCK SPECTRAL_KPOINT_LIST
   0.5000000000000000    0.0000000000000000    0.0000000000000000       0.047619047619048
   0.5000000000000000    0.1000000000000000    0.1000000000000000       0.047619047619048
   0.5000000000000000    0.2000000000000000    0.2000000000000000       0.047619047619048
   0.5000000000000000    0.3000000000000000    0.3000000000000000       0.047619047619048
   0.5000000000000000    0.4000000000000000    0.4000000000000000       0.047619047619048
   0.5000000000000000    0.5000000000000000    0.5000000000000000       0.095238095238095
   0.5000000000000000    0.5000000000000000    0.3750000000000000       0.047619047619048
   0.5000000000000000    0.5000000000000000    0.2500000000000000       0.047619047619048
   0.5000000000000000    0.5000000000000000    0.1250000000000000       0.047619047619048
   0.5000000000000000    0.5000000000000000    0.0000000000000000       0.047619047619048
   0.4000000000000000    0.4000000000000000    0.0000000000000000       0.047619047619048
   0.3000000000000000    0.3000000000000000    0.0000000000000000       0.047619047619048
   0.2000000000000000    0.2000000000000000    0.0000000000000000       0.047619047619048
   0.1000000000000000    0.1000000000000000    0.0000000000000000       0.047619047619048
   0.0000000000000000    0.0000000000000000    0.0000000000000000       0.047619047619048
   0.0833333333333333    0.0833333333333333    0.0833333333333333       0.047619047619048
   0.1666666666666667    0.1666666666666667    0.1666666666666667       0.047619047619048
   0.2500000000000000    0.2500000000000000    0.2500000000000000       0.047619047619048
   0.3333333333333333    0.3333333333333333    0.3333333333333333       0.047619047619048
   0.4166666666666666    0.4166666666666666    0.4166666666666666       0.047619047619048
%ENDBLOCK SPECTRAL_KPOINT_LIST

%BLOCK KPOINTS_LIST
   0.2500000000000000    0.2500000000000000    0.2500000000000000       1.000000000000000
%ENDBLOCK KPOINTS_LIST

%BLOCK CELL_CONSTRAINTS
       1       1       1
       0       0       0
%ENDBLOCK CELL_CONSTRAINTS

FIX_COM : false
%BLOCK IONIC_CONSTRAINTS
%ENDBLOCK IONIC_CONSTRAINTS

%BLOCK EXTERNAL_EFIELD
    0.0000000000     0.0000000000     0.0000000000 
%ENDBLOCK EXTERNAL_EFIELD

%BLOCK SPECIES_MASS
      Si     28.0849990845
%ENDBLOCK SPECIES_MASS

%BLOCK SPECIES_POT
      Si  3|1.8|3.6|5|7|30UU:31UU:32UU[]
%ENDBLOCK SPECIES_POT

%BLOCK SPECIES_LCAO_STATES
      Si         2
%ENDBLOCK SPECIES_LCAO_STATES

